feasible solution found by trivial heuristic after 1.8 seconds, objective value 6.180400e+04
presolving:
(round 1, fast)       101272 del vars, 119647 del conss, 0 add conss, 0 chg bounds, 0 chg sides, 0 chg coeffs, 0 upgd conss, 0 impls, 0 clqs
(round 2, fast)       101362 del vars, 119647 del conss, 0 add conss, 0 chg bounds, 0 chg sides, 0 chg coeffs, 0 upgd conss, 0 impls, 0 clqs
   (4.1s) running MILP presolver
   (4.5s) MILP presolver found nothing
(round 3, exhaustive) 101362 del vars, 119647 del conss, 0 add conss, 0 chg bounds, 0 chg sides, 0 chg coeffs, 1125 upgd conss, 0 impls, 0 clqs
   (6.3s) probing: 51/2250 (2.3%) - 0 fixings, 0 aggregations, 0 implications, 0 bound changes
   (6.3s) probing aborted: 50/50 successive totally useless probings
   (7.3s) symmetry computation started: requiring (bin +, int -, cont +), (fixed: bin -, int +, cont -)
   (7.8s) no symmetry present
presolving (4 rounds: 4 fast, 2 medium, 2 exhaustive):
 101362 deleted vars, 119647 deleted constraints, 0 added constraints, 0 tightened bounds, 0 added holes, 0 changed sides, 0 changed coefficients
 0 implications, 0 cliques
presolved problem has 2250 variables (2250 bin, 0 int, 0 impl, 0 cont) and 1125 constraints
   1125 constraints of type <logicor>
transformed objective value is always integral (scale: 1)
Presolving Time: 8.55

 time | node  | left  |LP iter|LP it/n|mem/heur|mdpt |vars |cons |rows |cuts |sepa|confs|strbr|  dualbound   | primalbound  |  gap   | compl. 
t 9.9s|     1 |     0 |     0 |     - | trivial|   0 |2250 |1125 |   0 |   0 |  0 |   0 |   0 | 0.000000e+00 | 8.919000e+03 |    Inf | unknown
p10.6s|     1 |     0 |     0 |     - |   locks|   0 |2250 |1125 |1125 |   0 |  0 |   0 |   0 | 0.000000e+00 | 1.700000e+01 |    Inf | unknown
 27.7s|     1 |     0 | 10634 |     - |  1541M |   0 |2250 |1125 |1125 |   0 |  0 |   0 |   0 | 1.400272e+00 | 1.700000e+01 |1114.05%| unknown
r27.7s|     1 |     0 | 10634 |     - |rounding|   0 |2250 |1125 |1125 |   0 |  0 |   0 |   0 | 1.400272e+00 | 1.600000e+01 |1042.63%| unknown
r27.7s|     1 |     0 | 10634 |     - |shifting|   0 |2250 |1125 |1125 |   0 |  0 |   0 |   0 | 1.400272e+00 | 1.500000e+01 | 971.22%| unknown
i27.8s|     1 |     0 | 10634 |     - |  oneopt|   0 |2250 |1125 |1125 |   0 |  0 |   0 |   0 | 1.400272e+00 | 4.000000e+00 | 185.66%| unknown
 28.5s|     1 |     0 | 10634 |     - |  1541M |   0 |2250 |1125 |1125 |   0 |  2 |   0 |   0 | 1.400272e+00 | 4.000000e+00 | 185.66%| unknown
 28.5s|     1 |     0 | 10634 |     - |  1541M |   0 |2250 |1125 |1125 |   0 |  2 |   0 |   0 | 1.400272e+00 | 4.000000e+00 | 185.66%| unknown
L69.5s|     1 |     0 | 21104 |     - |    rens|   0 |2250 |1125 |1125 |   0 |  4 |   0 |   0 | 1.400272e+00 | 2.000000e+00 |  42.83%| unknown
 69.6s|     1 |     0 | 21104 |     - |  1543M |   0 |2250 |1125 |1125 |   0 |  4 |   0 |   0 | 2.000000e+00 | 2.000000e+00 |   0.00%| unknown

SCIP Status        : problem is solved [optimal solution found]
Solving Time (sec) : 69.57
Solving Nodes      : 1
Primal Bound       : +2.00000000000000e+00 (69 solutions)
Dual Bound         : +2.00000000000000e+00
Gap                : 0.00 %
Solve Status: optimal
Solve Time: 69.66 seconds
